60
1 0 72
2 0 63
2 1 20
3 0 33
3 1 16
3 2 10
4 0 60
4 1 40
4 2 13
4 3 35
5 0 78
5 1 46
5 2 23
5 3 72
5 4 11
6 0 41
6 1 40
6 2 4
6 3 25
6 4 12
6 5 70
7 0 3
7 1 6
7 2 13
7 3 27
7 4 9
7 5 50
7 6 38
8 0 1
8 1 78
8 2 10
8 3 22
8 4 22
8 5 58
8 6 54
8 7 10
9 0 77
9 1 67
9 2 2
9 3 67
9 4 11
9 5 10
9 6 7
9 7 31
9 8 20
10 0 47
10 1 63
10 2 53
10 3 59
10 4 78
10 5 64
10 6 79
10 7 34
10 8 2
10 9 14
11 0 62
11 1 19
11 2 75
11 3 5
11 4 51
11 5 75
11 6 37
11 7 68
11 8 68
11 9 10
11 10 66
12 0 37
12 1 78
12 2 52
12 3 10
12 4 66
12 5 13
12 6 80
12 7 3
12 8 33
12 9 21
12 10 45
12 11 11
13 0 56
13 1 63
13 2 57
13 3 57
13 4 59
13 5 40
13 6 6
13 7 38
13 8 14
13 9 11
13 10 37
13 11 2
13 12 55
14 0 24
14 1 36
14 2 24
14 3 22
14 4 66
14 5 24
14 6 20
14 7 8
14 8 8
14 9 78
14 10 26
14 11 73
14 12 77
14 13 34
15 0 77
15 1 76
15 2 23
15 3 12
15 4 45
15 5 13
15 6 42
15 7 1
15 8 7
15 9 78
15 10 42
15 11 50
15 12 9
15 13 70
15 14 38
16 0 68
16 1 77
16 2 67
16 3 2
16 4 18
16 5 25
16 6 79
16 7 57
16 8 28
16 9 21
16 10 24
16 11 10
16 12 49
16 13 77
16 14 11
16 15 65
17 0 45
17 1 6
17 2 70
17 3 49
17 4 12
17 5 70
17 6 3
17 7 63
17 8 35
17 9 51
17 10 45
17 11 42
17 12 30
17 13 42
17 14 13
17 15 28
17 16 10
18 0 31
18 1 2
18 2 52
18 3 48
18 4 80
18 5 9
18 6 30
18 7 44
18 8 50
18 9 72
18 10 38
18 11 12
18 12 3
18 13 29
18 14 70
18 15 78
18 16 32
18 17 39
19 0 66
19 1 67
19 2 36
19 3 53
19 4 5
19 5 72
19 6 12
19 7 48
19 8 1
19 9 77
19 10 44
19 11 66
19 12 5
19 13 69
19 14 44
19 15 64
19 16 51
19 17 41
19 18 78
20 0 13
20 1 44
20 2 55
20 3 76
20 4 61
20 5 68
20 6 1
20 7 43
20 8 25
20 9 14
20 10 40
20 11 15
20 12 7
20 13 32
20 14 43
20 15 37
20 16 59
20 17 73
20 18 27
20 19 78
21 0 16
21 1 80
21 2 22
21 3 52
21 4 42
21 5 3
21 6 34
21 7 47
21 8 55
21 9 43
21 10 30
21 11 27
21 12 80
21 13 17
21 14 5
21 15 14
21 16 56
21 17 51
21 18 25
21 19 62
21 20 45
22 0 12
22 1 17
22 2 29
22 3 72
22 4 4
22 5 38
22 6 22
22 7 19
22 8 26
22 9 50
22 10 37
22 11 30
22 12 26
22 13 30
22 14 26
22 15 55
22 16 20
22 17 65
22 18 2
22 19 7
22 20 28
22 21 80
23 0 6
23 1 58
23 2 78
23 3 29
23 4 75
23 5 31
23 6 22
23 7 63
23 8 64
23 9 27
23 10 75
23 11 21
23 12 70
23 13 77
23 14 14
23 15 62
23 16 69
23 17 28
23 18 10
23 19 38
23 20 30
23 21 71
23 22 9
24 0 34
24 1 44
24 2 30
24 3 51
24 4 45
24 5 9
24 6 13
24 7 77
24 8 41
24 9 39
24 10 44
24 11 39
24 12 44
24 13 76
24 14 17
24 15 53
24 16 56
24 17 68
24 18 43
24 19 67
24 20 66
24 21 12
24 22 4
24 23 20
25 0 23
25 1 16
25 2 27
25 3 33
25 4 27
25 5 21
25 6 22
25 7 14
25 8 43
25 9 13
25 10 20
25 11 38
25 12 57
25 13 22
25 14 61
25 15 43
25 16 19
25 17 47
25 18 60
25 19 71
25 20 63
25 21 39
25 22 22
25 23 50
25 24 62
26 0 56
26 1 45
26 2 56
26 3 2
26 4 38
26 5 46
26 6 18
26 7 42
26 8 56
26 9 36
26 10 75
26 11 25
26 12 74
26 13 51
26 14 32
26 15 59
26 16 20
26 17 34
26 18 64
26 19 54
26 20 42
26 21 28
26 22 75
26 23 48
26 24 41
26 25 46
27 0 11
27 1 28
27 2 56
27 3 16
27 4 18
27 5 5
27 6 10
27 7 18
27 8 30
27 9 63
27 10 32
27 11 38
27 12 77
27 13 47
27 14 46
27 15 70
27 16 41
27 17 6
27 18 61
27 19 49
27 20 16
27 21 65
27 22 47
27 23 34
27 24 66
27 25 11
27 26 67
28 0 68
28 1 8
28 2 6
28 3 75
28 4 7
28 5 41
28 6 40
28 7 8
28 8 7
28 9 21
28 10 66
28 11 21
28 12 55
28 13 3
28 14 63
28 15 14
28 16 15
28 17 49
28 18 3
28 19 23
28 20 46
28 21 35
28 22 58
28 23 18
28 24 21
28 25 66
28 26 23
28 27 2
29 0 2
29 1 27
29 2 79
29 3 43
29 4 48
29 5 39
29 6 4
29 7 35
29 8 13
29 9 75
29 10 35
29 11 73
29 12 35
29 13 50
29 14 44
29 15 1
29 16 29
29 17 54
29 18 26
29 19 9
29 20 34
29 21 1
29 22 63
29 23 73
29 24 22
29 25 71
29 26 61
29 27 14
29 28 79
30 0 71
30 1 21
30 2 73
30 3 18
30 4 8
30 5 14
30 6 63
30 7 20
30 8 36
30 9 59
30 10 76
30 11 25
30 12 34
30 13 15
30 14 40
30 15 2
30 16 56
30 17 57
30 18 41
30 19 63
30 20 35
30 21 22
30 22 2
30 23 19
30 24 10
30 25 8
30 26 47
30 27 22
30 28 24
30 29 75
31 0 26
31 1 32
31 2 54
31 3 31
31 4 39
31 5 9
31 6 22
31 7 55
31 8 73
31 9 53
31 10 52
31 11 7
31 12 12
31 13 50
31 14 37
31 15 38
31 16 63
31 17 65
31 18 64
31 19 65
31 20 36
31 21 47
31 22 7
31 23 76
31 24 49
31 25 63
31 26 34
31 27 30
31 28 70
31 29 35
31 30 67
32 0 18
32 1 52
32 2 23
32 3 50
32 4 55
32 5 20
32 6 62
32 7 63
32 8 33
32 9 68
32 10 66
32 11 37
32 12 59
32 13 69
32 14 56
32 15 36
32 16 54
32 17 50
32 18 68
32 19 45
32 20 14
32 21 42
32 22 26
32 23 29
32 24 1
32 25 71
32 26 27
32 27 26
32 28 10
32 29 17
32 30 4
32 31 59
33 0 50
33 1 61
33 2 37
33 3 52
33 4 43
33 5 38
33 6 19
33 7 65
33 8 4
33 9 43
33 10 59
33 11 34
33 12 65
33 13 38
33 14 42
33 15 8
33 16 57
33 17 20
33 18 16
33 19 27
33 20 75
33 21 71
33 22 33
33 23 32
33 24 33
33 25 46
33 26 10
33 27 44
33 28 71
33 29 23
33 30 60
33 31 61
33 32 14
34 0 28
34 1 57
34 2 53
34 3 45
34 4 39
34 5 26
34 6 7
34 7 79
34 8 26
34 9 28
34 10 46
34 11 76
34 12 26
34 13 27
34 14 65
34 15 75
34 16 52
34 17 68
34 18 49
34 19 73
34 20 35
34 21 6
34 22 14
34 23 22
34 24 41
34 25 22
34 26 43
34 27 8
34 28 36
34 29 35
34 30 45
34 31 65
34 32 44
34 33 54
35 0 67
35 1 38
35 2 12
35 3 48
35 4 29
35 5 24
35 6 31
35 7 34
35 8 70
35 9 10
35 10 11
35 11 51
35 12 7
35 13 6
35 14 78
35 15 47
35 16 34
35 17 40
35 18 27
35 19 16
35 20 68
35 21 62
35 22 5
35 23 57
35 24 74
35 25 80
35 26 10
35 27 10
35 28 8
35 29 20
35 30 31
35 31 62
35 32 11
35 33 7
35 34 22
36 0 20
36 1 68
36 2 43
36 3 9
36 4 42
36 5 54
36 6 46
36 7 31
36 8 79
36 9 79
36 10 9
36 11 77
36 12 73
36 13 59
36 14 47
36 15 30
36 16 19
36 17 18
36 18 9
36 19 39
36 20 3
36 21 66
36 22 46
36 23 19
36 24 74
36 25 9
36 26 76
36 27 12
36 28 7
36 29 53
36 30 10
36 31 77
36 32 79
36 33 42
36 34 58
36 35 43
37 0 63
37 1 2
37 2 61
37 3 62
37 4 1
37 5 36
37 6 13
37 7 26
37 8 77
37 9 71
37 10 39
37 11 28
37 12 13
37 13 9
37 14 28
37 15 34
37 16 38
37 17 30
37 18 35
37 19 45
37 20 72
37 21 31
37 22 77
37 23 67
37 24 22
37 25 6
37 26 14
37 27 7
37 28 80
37 29 52
37 30 17
37 31 58
37 32 79
37 33 15
37 34 13
37 35 43
37 36 16
38 0 63
38 1 35
38 2 14
38 3 34
38 4 77
38 5 64
38 6 42
38 7 26
38 8 62
38 9 29
38 10 19
38 11 60
38 12 1
38 13 57
38 14 15
38 15 1
38 16 26
38 17 69
38 18 42
38 19 40
38 20 79
38 21 49
38 22 51
38 23 64
38 24 7
38 25 50
38 26 13
38 27 23
38 28 75
38 29 24
38 30 75
38 31 72
38 32 3
38 33 12
38 34 33
38 35 33
38 36 16
38 37 29
39 0 80
39 1 31
39 2 25
39 3 58
39 4 34
39 5 1
39 6 79
39 7 80
39 8 71
39 9 78
39 10 16
39 11 56
39 12 62
39 13 26
39 14 30
39 15 35
39 16 13
39 17 13
39 18 60
39 19 57
39 20 19
39 21 23
39 22 3
39 23 44
39 24 51
39 25 17
39 26 29
39 27 29
39 28 11
39 29 29
39 30 34
39 31 11
39 32 10
39 33 19
39 34 4
39 35 49
39 36 4
39 37 59
39 38 55
40 0 19
40 1 44
40 2 15
40 3 55
40 4 64
40 5 7
40 6 46
40 7 80
40 8 22
40 9 14
40 10 4
40 11 2
40 12 26
40 13 44
40 14 66
40 15 50
40 16 11
40 17 8
40 18 67
40 19 41
40 20 74
40 21 5
40 22 2
40 23 34
40 24 6
40 25 72
40 26 68
40 27 79
40 28 60
40 29 10
40 30 50
40 31 8
40 32 49
40 33 46
40 34 53
40 35 16
40 36 62
40 37 20
40 38 25
40 39 64
41 0 16
41 1 42
41 2 37
41 3 9
41 4 19
41 5 30
41 6 74
41 7 51
41 8 77
41 9 80
41 10 4
41 11 14
41 12 34
41 13 72
41 14 20
41 15 32
41 16 9
41 17 33
41 18 20
41 19 14
41 20 19
41 21 3
41 22 40
41 23 14
41 24 38
41 25 22
41 26 73
41 27 23
41 28 29
41 29 61
41 30 58
41 31 25
41 32 54
41 33 70
41 34 31
41 35 41
41 36 12
41 37 5
41 38 57
41 39 14
41 40 44
42 0 50
42 1 45
42 2 30
42 3 80
42 4 65
42 5 78
42 6 25
42 7 80
42 8 17
42 9 29
42 10 12
42 11 44
42 12 76
42 13 20
42 14 22
42 15 19
42 16 21
42 17 67
42 18 7
42 19 31
42 20 21
42 21 78
42 22 2
42 23 39
42 24 1
42 25 56
42 26 29
42 27 41
42 28 33
42 29 24
42 30 76
42 31 74
42 32 25
42 33 37
42 34 77
42 35 26
42 36 61
42 37 10
42 38 25
42 39 19
42 40 56
42 41 78
43 0 23
43 1 29
43 2 16
43 3 57
43 4 45
43 5 24
43 6 74
43 7 53
43 8 58
43 9 48
43 10 72
43 11 15
43 12 70
43 13 46
43 14 26
43 15 4
43 16 73
43 17 38
43 18 13
43 19 56
43 20 51
43 21 46
43 22 64
43 23 6
43 24 74
43 25 40
43 26 75
43 27 39
43 28 15
43 29 78
43 30 49
43 31 48
43 32 20
43 33 42
43 34 55
43 35 44
43 36 30
43 37 75
43 38 60
43 39 65
43 40 55
43 41 50
43 42 63
44 0 25
44 1 46
44 2 3
44 3 17
44 4 64
44 5 68
44 6 63
44 7 22
44 8 60
44 9 30
44 10 24
44 11 55
44 12 73
44 13 67
44 14 74
44 15 17
44 16 50
44 17 55
44 18 75
44 19 25
44 20 32
44 21 32
44 22 72
44 23 28
44 24 18
44 25 56
44 26 17
44 27 62
44 28 70
44 29 18
44 30 72
44 31 29
44 32 1
44 33 5
44 34 75
44 35 33
44 36 73
44 37 62
44 38 55
44 39 34
44 40 78
44 41 6
44 42 11
44 43 65
45 0 46
45 1 22
45 2 19
45 3 36
45 4 66
45 5 3
45 6 24
45 7 25
45 8 9
45 9 14
45 10 27
45 11 37
45 12 66
45 13 39
45 14 70
45 15 78
45 16 34
45 17 66
45 18 40
45 19 64
45 20 50
45 21 70
45 22 24
45 23 40
45 24 66
45 25 47
45 26 66
45 27 34
45 28 43
45 29 71
45 30 23
45 31 53
45 32 51
45 33 16
45 34 17
45 35 80
45 36 74
45 37 17
45 38 50
45 39 49
45 40 72
45 41 41
45 42 42
45 43 13
45 44 5
46 0 14
46 1 22
46 2 57
46 3 79
46 4 43
46 5 8
46 6 36
46 7 3
46 8 48
46 9 75
46 10 21
46 11 35
46 12 70
46 13 13
46 14 43
46 15 11
46 16 45
46 17 78
46 18 63
46 19 45
46 20 29
46 21 52
46 22 5
46 23 24
46 24 37
46 25 59
46 26 8
46 27 26
46 28 20
46 29 74
46 30 60
46 31 6
46 32 78
46 33 21
46 34 5
46 35 76
46 36 35
46 37 70
46 38 18
46 39 44
46 40 18
46 41 34
46 42 6
46 43 75
46 44 25
46 45 72
47 0 77
47 1 70
47 2 72
47 3 33
47 4 14
47 5 48
47 6 61
47 7 26
47 8 6
47 9 59
47 10 53
47 11 53
47 12 1
47 13 15
47 14 43
47 15 55
47 16 13
47 17 35
47 18 29
47 19 9
47 20 25
47 21 35
47 22 79
47 23 32
47 24 78
47 25 71
47 26 47
47 27 77
47 28 28
47 29 58
47 30 11
47 31 27
47 32 19
47 33 17
47 34 12
47 35 53
47 36 58
47 37 58
47 38 77
47 39 67
47 40 16
47 41 25
47 42 57
47 43 41
47 44 21
47 45 39
47 46 20
48 0 41
48 1 29
48 2 77
48 3 34
48 4 34
48 5 24
48 6 18
48 7 40
48 8 43
48 9 77
48 10 80
48 11 63
48 12 23
48 13 72
48 14 31
48 15 35
48 16 66
48 17 48
48 18 68
48 19 31
48 20 44
48 21 45
48 22 41
48 23 45
48 24 44
48 25 50
48 26 27
48 27 79
48 28 31
48 29 74
48 30 26
48 31 29
48 32 48
48 33 59
48 34 58
48 35 28
48 36 79
48 37 66
48 38 52
48 39 40
48 40 31
48 41 16
48 42 1
48 43 43
48 44 48
48 45 30
48 46 39
48 47 55
49 0 52
49 1 33
49 2 53
49 3 76
49 4 48
49 5 44
49 6 2
49 7 50
49 8 42
49 9 4
49 10 20
49 11 53
49 12 23
49 13 49
49 14 61
49 15 31
49 16 44
49 17 39
49 18 67
49 19 57
49 20 60
49 21 8
49 22 41
49 23 8
49 24 13
49 25 73
49 26 14
49 27 51
49 28 36
49 29 55
49 30 46
49 31 5
49 32 76
49 33 49
49 34 43
49 35 64
49 36 72
49 37 48
49 38 63
49 39 78
49 40 27
49 41 5
49 42 43
49 43 18
49 44 4
49 45 69
49 46 63
49 47 62
49 48 21
50 0 7
50 1 38
50 2 1
50 3 55
50 4 10
50 5 1
50 6 41
50 7 7
50 8 70
50 9 54
50 10 25
50 11 51
50 12 30
50 13 2
50 14 70
50 15 46
50 16 2
50 17 29
50 18 1
50 19 3
50 20 10
50 21 51
50 22 60
50 23 7
50 24 41
50 25 49
50 26 63
50 27 16
50 28 43
50 29 13
50 30 25
50 31 65
50 32 51
50 33 57
50 34 76
50 35 57
50 36 6
50 37 48
50 38 28
50 39 27
50 40 72
50 41 49
50 42 55
50 43 14
50 44 1
50 45 80
50 46 79
50 47 7
50 48 71
50 49 71
51 0 8
51 1 79
51 2 35
51 3 51
51 4 53
51 5 19
51 6 79
51 7 59
51 8 46
51 9 72
51 10 24
51 11 30
51 12 43
51 13 33
51 14 24
51 15 35
51 16 77
51 17 49
51 18 62
51 19 74
51 20 6
51 21 71
51 22 16
51 23 72
51 24 13
51 25 9
51 26 51
51 27 24
51 28 17
51 29 47
51 30 11
51 31 51
51 32 37
51 33 3
51 34 14
51 35 79
51 36 43
51 37 44
51 38 14
51 39 74
51 40 19
51 41 67
51 42 75
51 43 42
51 44 11
51 45 24
51 46 55
51 47 24
51 48 41
51 49 71
51 50 80
52 0 60
52 1 35
52 2 40
52 3 62
52 4 10
52 5 62
52 6 38
52 7 13
52 8 23
52 9 57
52 10 51
52 11 73
52 12 65
52 13 60
52 14 54
52 15 54
52 16 76
52 17 50
52 18 79
52 19 22
52 20 69
52 21 28
52 22 10
52 23 65
52 24 21
52 25 28
52 26 49
52 27 23
52 28 42
52 29 46
52 30 60
52 31 79
52 32 63
52 33 64
52 34 46
52 35 69
52 36 43
52 37 57
52 38 16
52 39 61
52 40 66
52 41 33
52 42 14
52 43 72
52 44 18
52 45 28
52 46 41
52 47 31
52 48 59
52 49 3
52 50 48
52 51 31
53 0 62
53 1 60
53 2 20
53 3 20
53 4 49
53 5 31
53 6 26
53 7 67
53 8 76
53 9 1
53 10 74
53 11 62
53 12 57
53 13 50
53 14 3
53 15 26
53 16 68
53 17 48
53 18 2
53 19 21
53 20 13
53 21 32
53 22 37
53 23 62
53 24 11
53 25 58
53 26 13
53 27 24
53 28 33
53 29 13
53 30 37
53 31 79
53 32 30
53 33 80
53 34 72
53 35 78
53 36 79
53 37 68
53 38 11
53 39 64
53 40 66
53 41 78
53 42 52
53 43 51
53 44 77
53 45 67
53 46 26
53 47 3
53 48 19
53 49 79
53 50 29
53 51 48
53 52 64
54 0 29
54 1 71
54 2 47
54 3 21
54 4 65
54 5 16
54 6 26
54 7 64
54 8 5
54 9 43
54 10 18
54 11 62
54 12 59
54 13 75
54 14 36
54 15 1
54 16 5
54 17 34
54 18 54
54 19 60
54 20 27
54 21 42
54 22 38
54 23 59
54 24 20
54 25 16
54 26 26
54 27 16
54 28 58
54 29 19
54 30 15
54 31 37
54 32 76
54 33 79
54 34 13
54 35 49
54 36 39
54 37 79
54 38 57
54 39 33
54 40 71
54 41 52
54 42 34
54 43 26
54 44 9
54 45 24
54 46 31
54 47 37
54 48 48
54 49 6
54 50 38
54 51 47
54 52 5
54 53 37
55 0 21
55 1 66
55 2 75
55 3 59
55 4 29
55 5 37
55 6 30
55 7 16
55 8 27
55 9 78
55 10 15
55 11 21
55 12 44
55 13 30
55 14 75
55 15 53
55 16 37
55 17 25
55 18 23
55 19 26
55 20 36
55 21 49
55 22 15
55 23 70
55 24 5
55 25 14
55 26 47
55 27 35
55 28 9
55 29 32
55 30 50
55 31 42
55 32 30
55 33 45
55 34 55
55 35 12
55 36 43
55 37 73
55 38 49
55 39 18
55 40 51
55 41 13
55 42 73
55 43 11
55 44 29
55 45 72
55 46 3
55 47 80
55 48 58
55 49 6
55 50 62
55 51 59
55 52 10
55 53 23
55 54 30
56 0 34
56 1 59
56 2 76
56 3 12
56 4 20
56 5 62
56 6 22
56 7 36
56 8 73
56 9 5
56 10 58
56 11 31
56 12 62
56 13 74
56 14 37
56 15 51
56 16 46
56 17 32
56 18 60
56 19 12
56 20 69
56 21 19
56 22 45
56 23 66
56 24 25
56 25 16
56 26 53
56 27 15
56 28 46
56 29 48
56 30 3
56 31 62
56 32 39
56 33 9
56 34 36
56 35 65
56 36 38
56 37 32
56 38 25
56 39 22
56 40 65
56 41 68
56 42 33
56 43 34
56 44 73
56 45 53
56 46 80
56 47 47
56 48 64
56 49 5
56 50 25
56 51 44
56 52 30
56 53 20
56 54 51
56 55 68
57 0 31
57 1 46
57 2 24
57 3 5
57 4 1
57 5 65
57 6 33
57 7 51
57 8 23
57 9 56
57 10 7
57 11 75
57 12 22
57 13 1
57 14 39
57 15 44
57 16 26
57 17 73
57 18 80
57 19 7
57 20 65
57 21 27
57 22 23
57 23 75
57 24 42
57 25 43
57 26 11
57 27 60
57 28 21
57 29 19
57 30 21
57 31 48
57 32 31
57 33 69
57 34 36
57 35 5
57 36 43
57 37 70
57 38 65
57 39 61
57 40 52
57 41 16
57 42 80
57 43 6
57 44 72
57 45 13
57 46 46
57 47 73
57 48 29
57 49 39
57 50 79
57 51 78
57 52 37
57 53 33
57 54 65
57 55 71
57 56 39
58 0 56
58 1 10
58 2 66
58 3 52
58 4 24
58 5 26
58 6 73
58 7 57
58 8 71
58 9 55
58 10 27
58 11 74
58 12 37
58 13 29
58 14 70
58 15 70
58 16 80
58 17 70
58 18 31
58 19 44
58 20 27
58 21 3
58 22 40
58 23 46
58 24 25
58 25 78
58 26 36
58 27 50
58 28 51
58 29 63
58 30 64
58 31 25
58 32 60
58 33 60
58 34 52
58 35 7
58 36 14
58 37 29
58 38 29
58 39 76
58 40 51
58 41 45
58 42 1
58 43 9
58 44 20
58 45 64
58 46 5
58 47 56
58 48 36
58 49 72
58 50 8
58 51 28
58 52 28
58 53 76
58 54 36
58 55 18
58 56 80
58 57 41
59 0 76
59 1 50
59 2 35
59 3 78
59 4 47
59 5 42
59 6 49
59 7 72
59 8 29
59 9 37
59 10 49
59 11 36
59 12 57
59 13 64
59 14 57
59 15 48
59 16 40
59 17 7
59 18 23
59 19 32
59 20 14
59 21 11
59 22 32
59 23 54
59 24 68
59 25 17
59 26 61
59 27 71
59 28 17
59 29 11
59 30 37
59 31 80
59 32 39
59 33 29
59 34 28
59 35 51
59 36 11
59 37 31
59 38 29
59 39 66
59 40 58
59 41 76
59 42 65
59 43 12
59 44 21
59 45 74
59 46 54
59 47 8
59 48 78
59 49 67
59 50 33
59 51 70
59 52 17
59 53 35
59 54 41
59 55 5
59 56 9
59 57 60
59 58 22
